letting initialStacks = [51, 24, 9, 11, 44, 3, 21, 46, 31, 30, 26, 33, 1, 29, 19, 41, 48, 38, 39, 20, 47, 49, 8, 27, 42, 13, 12, 36, 40, 2, 22, 10, 37, 6, 45, 16, 34, 17, 25, 4, 32, 43, 7, 50, 23, 15, 14, 35, 28, 5, 18]
